
Welcome to IBM(R) ILOG(R) CPLEX(R) Interactive Optimizer 22.1.1.0
  with Simplex, Mixed Integer & Barrier Optimizers
5725-A06 5725-A29 5724-Y48 5724-Y49 5724-Y54 5724-Y55 5655-Y21
Copyright IBM Corp. 1988, 2022.  All Rights Reserved.

Type 'help' for a list of available commands.
Type 'help' followed by a command name for more
information on commands.

CPLEX> Selected objective sense:  MINIMIZE
Selected objective  name:  00000000
Selected RHS        name:  RHS1
Selected bound      name:  BOUND
Problem 'ee.mps' read.
Read time = 0.03 sec. (3.14 ticks)
CPLEX> New value for time limit in seconds: 7200
CPLEX> New value for parallel optimization mode: -1
CPLEX> New value for default parallel thread count: 40
CPLEX> New value for mixed integer optimality gap tolerance: 1e-13
CPLEX> Version identifier: 22.1.1.0 | 2022-11-28 | 9160aff4d
CPXPARAM_Threads                                 40
CPXPARAM_Parallel                                -1
CPXPARAM_TimeLimit                               7200
CPXPARAM_MIP_Tolerances_MIPGap                   1e-13
Found incumbent of value 0.000000 after 0.00 sec. (0.31 ticks)
Tried aggregator 2 times.
MIP Presolve eliminated 178 rows and 2745 columns.
MIP Presolve modified 5862 coefficients.
Aggregator did 713 substitutions.
Reduced MIP has 3624 rows, 7739 columns, and 28646 nonzeros.
Reduced MIP has 7739 binaries, 0 generals, 0 SOSs, and 0 indicators.
Presolve time = 0.07 sec. (68.56 ticks)
Probing time = 0.03 sec. (5.33 ticks)
Tried aggregator 1 time.
Detecting symmetries...
Reduced MIP has 3624 rows, 7739 columns, and 28646 nonzeros.
Reduced MIP has 7739 binaries, 0 generals, 0 SOSs, and 0 indicators.
Presolve time = 0.02 sec. (21.84 ticks)
Probing time = 0.02 sec. (5.12 ticks)
Clique table members: 18552.
MIP emphasis: balance optimality and feasibility.
MIP search method: dynamic search.
Parallel mode: opportunistic, using up to 40 threads.
Root relaxation solution time = 0.07 sec. (47.46 ticks)

        Nodes                                         Cuts/
   Node  Left     Objective  IInf  Best Integer    Best Bound    ItCnt     Gap

*     0+    0                            0.0000  -1.31000e+13              --- 
*     0+    0                      -7.70000e+12  -1.31000e+13            70.13%
*     0+    0                      -8.80000e+12  -1.31000e+13            48.86%
*     0+    0                      -9.79000e+12  -1.31000e+13            33.81%
*     0+    0                      -1.08900e+13  -1.31000e+13            20.29%
*     0+    0                      -1.10000e+13  -1.31000e+13            19.09%
*     0+    0                      -1.21000e+13  -1.31000e+13             8.26%
*     0+    0                      -1.30900e+13  -1.31000e+13             0.08%
      0     0  -1.30900e+13    67  -1.30900e+13  -1.30900e+13     1712    0.00%
*     0+    0                      -1.30900e+13  -1.30900e+13             0.00%
      0     0  -1.30900e+13    78  -1.30900e+13      Cuts: 72     2980    0.00%
      0     0  -1.30900e+13    90  -1.30900e+13      Cuts: 64     3218    0.00%
*     0+    0                      -1.30900e+13  -1.30900e+13             0.00%
*     0+    0                      -1.30900e+13  -1.30900e+13             0.00%

Repeating presolve.
Tried aggregator 2 times.
MIP Presolve eliminated 1128 rows and 2934 columns.
MIP Presolve added 24 rows and 0 columns.
MIP Presolve modified 59 coefficients.
Aggregator did 301 substitutions.
Reduced MIP has 2219 rows, 4493 columns, and 16401 nonzeros.
Reduced MIP has 4493 binaries, 0 generals, 0 SOSs, and 0 indicators.
Presolve time = 0.05 sec. (57.01 ticks)
Probing fixed 20 vars, tightened 0 bounds.
Probing time = 0.04 sec. (17.08 ticks)
Tried aggregator 2 times.
Detecting symmetries...
MIP Presolve eliminated 17 rows and 31 columns.
Aggregator did 2 substitutions.
Reduced MIP has 2200 rows, 4455 columns, and 16266 nonzeros.
Reduced MIP has 4455 binaries, 0 generals, 0 SOSs, and 0 indicators.
Presolve time = 0.03 sec. (29.88 ticks)
Represolve time = 0.14 sec. (119.41 ticks)
Probing time = 0.02 sec. (4.15 ticks)
Clique table members: 11076.
MIP emphasis: balance optimality and feasibility.
MIP search method: dynamic search.
Parallel mode: opportunistic, using up to 40 threads.
Root relaxation solution time = 0.10 sec. (32.94 ticks)

        Nodes                                         Cuts/
   Node  Left     Objective  IInf  Best Integer    Best Bound    ItCnt     Gap

*     0+    0                      -1.30900e+13  -1.30900e+13             0.00%
      0     0  -1.30900e+13    76  -1.30900e+13  -1.30900e+13     4344    0.00%
      0     0  -1.30900e+13    99  -1.30900e+13      Cuts: 62     4624    0.00%
      0     0  -1.30900e+13   112  -1.30900e+13      Cuts: 47     5043    0.00%
*     0+    0                      -1.30900e+13  -1.30900e+13             0.00%
      0     2  -1.30900e+13   100  -1.30900e+13  -1.30900e+13     5043    0.00%
Elapsed time = 2.43 sec. (1575.49 ticks, tree = 0.02 MB, solutions = 12)
    682    60  -1.30900e+13   142  -1.30900e+13  -1.30900e+13    53877    0.00%
   1953    99        cutoff        -1.30900e+13  -1.30900e+13   244120    0.00%
   3037   190        cutoff        -1.30900e+13  -1.30900e+13   195478    0.00%
   3661   171  -1.30900e+13    56  -1.30900e+13  -1.30900e+13   226143    0.00%
   3860    63  -1.30900e+13   109  -1.30900e+13  -1.30900e+13   267302    0.00%

GUB cover cuts applied:  4
Clique cuts applied:  20
Cover cuts applied:  594
Flow cuts applied:  2
Mixed integer rounding cuts applied:  11
Zero-half cuts applied:  15
Lift and project cuts applied:  15
Gomory fractional cuts applied:  21

Root node processing (before b&c):
  Real time             =    1.91 sec. (1574.85 ticks)
Parallel b&c, 40 threads:
  Real time             =    2.64 sec. (1213.98 ticks)
  Sync time (average)   =    0.98 sec.
  Wait time (average)   =    0.00 sec.
                          ------------
Total (root+branch&cut) =    4.55 sec. (2788.84 ticks)

Solution pool: 12 solutions saved.

MIP - Integer optimal solution:  Objective = -1.3089999691e+13
Solution time =    4.64 sec.  Iterations = 320961  Nodes = 3863
Deterministic time = 2788.87 ticks  (601.08 ticks/sec)

CPLEX> Solution 'p13' written to file 'ee.sol'.
CPLEX> 